0 9946.94
1 9946.07
2 9668.93
3 9668.93
4 9639.28
5 9583.02
6 9581.61
7 9581.61
8 9581.61
9 9495.55
10 9403.01
11 9337.24
12 9337.24
13 9118.64
14 9118.64
15 9118.64
16 9118.64
17 9078.25
18 8984.36
19 8984.36
20 8969.79
21 8969.79
22 8889.15
23 8719.63
24 8719.63
25 8719.63
26 8688.48
27 8682.79
28 8682.79
29 8593.99
30 8546.76
31 8546.76
32 8535.25
33 8535.25
34 8525.99
35 8525.99
36 8525.99
37 8452.63
38 8448.69
39 8448.69
40 8439.75
41 8439.75
42 8439.75
43 8416.86
44 8392.41
45 8392.41
46 8392.41
47 8392.41
48 8392.41
49 8392.41
50 8392.41
51 8392.41
52 8392.41
53 8290.63
54 8288.60
55 8288.60
56 8264.65
57 8264.65
58 8264.65
59 8264.65
60 8264.65
61 8264.65
62 8264.65
63 8264.65
64 8264.65
65 8201.81
66 8201.70
67 8198.91
68 8198.91
69 8137.07
70 8137.07
71 8137.07
72 8078.73
73 8078.73
74 8078.73
75 8075.00
76 8075.00
77 8075.00
78 8075.00
79 8024.67
80 8024.67
81 7960.39
82 7946.74
83 7946.74
84 7938.44
85 7938.44
86 7931.45
87 7931.45
88 7931.45
89 7931.45
90 7931.45
91 7931.45
92 7931.45
93 7931.45
94 7931.45
95 7931.45
96 7826.39
97 7826.39
98 7826.39
99 7826.39
100 7826.39
101 7826.39
102 7786.48
103 7786.48
104 7786.48
105 7786.48
106 7786.48
107 7775.49
108 7735.52
109 7735.52
110 7642.31
111 7642.31
112 7642.31
113 7642.31
114 7642.31
115 7633.47
116 7633.47
117 7595.68
118 7595.68
119 7595.68
120 7595.68
121 7595.68
122 7595.68
123 7595.68
124 7595.68
125 7566.50
126 7566.50
127 7566.50
128 7566.50
129 7566.50
130 7566.50
131 7566.50
132 7566.50
133 7566.50
134 7566.50
135 7566.50
136 7566.50
137 7566.50
138 7566.50
139 7566.50
140 7566.50
141 7552.04
142 7546.82
143 7546.82
144 7533.61
145 7516.46
146 7516.46
147 7516.46
148 7516.46
149 7516.46
150 7516.46
151 7516.46
152 7516.46
153 7516.46
154 7503.36
155 7503.36
156 7503.36
157 7503.36
158 7503.36
159 7486.72
160 7486.72
161 7486.72
162 7486.72
163 7486.72
164 7486.72
165 7486.72
166 7486.72
167 7486.72
168 7486.72
169 7486.72
170 7486.72
171 7486.72
172 7486.72
173 7486.72
174 7486.72
175 7486.72
176 7486.72
177 7486.72
178 7467.73
179 7439.59
180 7439.59
181 7439.59
182 7439.59
183 7439.59
184 7439.59
185 7439.59
186 7430.68
187 7430.68
188 7430.68
189 7430.68
190 7430.68
191 7430.68
192 7430.68
193 7428.59
194 7428.59
195 7428.59
196 7428.59
197 7428.59
198 7428.59
199 7412.56
200 7412.56
201 7412.56
202 7412.56
203 7412.56
204 7412.56
205 7412.56
206 7412.56
207 7412.56
208 7412.56
209 7412.56
210 7412.56
211 7412.56
212 7409.65
213 7409.65
214 7409.65
215 7409.65
216 7409.65
217 7409.65
218 7409.65
219 7409.65
220 7390.87
221 7390.87
222 7390.87
223 7390.87
224 7390.87
225 7390.87
226 7379.72
227 7379.72
228 7379.72
229 7379.72
230 7379.72
231 7340.74
232 7340.74
233 7340.74
234 7340.74
235 7340.74
236 7340.74
237 7340.74
238 7339.98
239 7339.98
240 7288.28
241 7288.28
242 7288.28
243 7288.28
244 7288.28
245 7288.28
246 7288.28
247 7288.28
248 7288.28
249 7288.28
250 7288.28
251 7288.28
252 7288.28
253 7288.28
254 7288.28
255 7288.28
256 7288.28
257 7288.28
258 7288.28
259 7288.28
260 7288.28
261 7288.28
262 7288.28
263 7288.28
264 7288.28
265 7288.28
266 7288.28
267 7288.28
268 7277.22
269 7277.22
270 7277.22
271 7277.22
272 7261.00
273 7261.00
274 7261.00
275 7261.00
276 7261.00
277 7261.00
278 7261.00
279 7261.00
280 7261.00
281 7261.00
282 7261.00
283 7261.00
284 7261.00
285 7261.00
286 7261.00
287 7261.00
288 7261.00
289 7261.00
290 7261.00
291 7232.06
292 7232.06
293 7231.90
294 7231.90
295 7231.90
296 7231.90
297 7231.90
298 7231.90
299 7231.90
300 7231.90
301 7231.90
302 7231.90
303 7177.53
304 7177.53
305 7177.53
306 7177.53
307 7177.53
308 7177.53
309 7177.53
310 7177.53
311 7177.53
312 7177.53
313 7177.53
314 7177.53
315 7177.53
316 7177.53
317 7177.53
318 7177.53
319 7177.53
320 7177.53
321 7177.53
322 7177.53
323 7177.53
324 7177.53
325 7177.53
326 7177.53
327 7177.53
328 7177.53
329 7177.53
330 7177.53
331 7177.53
332 7176.23
333 7176.23
334 7176.23
335 7176.23
336 7176.23
337 7176.23
338 7176.23
339 7176.23
340 7176.23
341 7176.23
342 7176.23
343 7176.23
344 7176.23
345 7176.23
346 7176.23
347 7176.23
348 7176.23
349 7176.23
350 7176.23
351 7176.23
352 7176.23
353 7176.23
354 7176.23
355 7176.23
356 7176.23
357 7176.23
358 7176.23
359 7176.23
360 7176.23
361 7176.23
362 7176.23
363 7176.23
364 7176.23
365 7176.23
366 7176.23
367 7176.23
368 7176.23
369 7176.23
370 7176.23
371 7169.76
372 7169.76
373 7169.76
374 7153.56
375 7153.56
376 7153.56
377 7153.56
378 7153.56
379 7153.56
380 7153.56
381 7153.56
382 7135.00
383 7135.00
384 7135.00
385 7135.00
386 7135.00
387 7127.45
388 7127.45
389 7127.45
390 7127.45
391 7127.45
392 7127.45
393 7127.45
394 7127.45
395 7127.45
396 7127.45
397 7127.45
398 7127.45
399 7125.83
400 7125.83
401 7125.83
402 7125.83
403 7125.83
404 7125.83
405 7125.83
406 7125.83
407 7125.83
408 7125.83
409 7125.83
410 7125.83
411 7125.83
412 7125.83
413 7125.83
414 7125.83
415 7125.83
416 7120.78
417 7120.78
418 7120.78
419 7120.78
420 7120.78
421 7120.78
422 7120.78
423 7120.78
424 7120.78
425 7120.78
426 7120.78
427 7120.78
428 7120.78
429 7120.78
430 7120.78
431 7120.78
432 7120.78
433 7113.41
434 7099.55
435 7099.55
436 7099.55
437 7099.55
438 7099.32
439 7099.32
440 7091.62
441 7091.62
442 7091.62
443 7091.62
444 7091.62
445 7091.62
446 7091.62
447 7091.46
448 7091.46
449 7091.46
450 7091.46
451 7059.66
452 7059.66
453 7059.66
454 7059.66
455 7059.66
456 7059.66
457 7059.66
458 7059.66
459 7059.66
460 7059.66
461 7059.66
462 7059.66
463 7059.66
464 7059.66
465 7059.66
466 7059.66
467 7059.66
468 7059.66
469 7059.66
470 7059.66
471 7059.66
472 7059.66
473 7059.66
474 7059.66
475 7059.66
476 7059.66
477 7059.66
478 7059.66
479 7059.66
480 7059.66
481 7059.66
482 7059.66
483 7059.66
484 7059.66
485 7059.66
486 7051.02
487 7051.02
488 7051.02
489 7051.02
490 7051.02
491 7051.02
492 7051.02
493 7051.02
494 7051.02
495 7051.02
496 7051.02
497 7039.08
498 7039.08
499 7039.08
500 7039.08
501 7039.08
502 7039.08
503 7039.08
504 7039.08
505 7039.08
506 7039.08
507 7039.08
508 7039.08
509 7039.08
510 7039.08
511 7039.08
512 7039.08
513 7039.08
514 7039.08
515 7039.08
516 7039.08
517 7039.08
518 7039.08
519 7039.08
520 7039.08
521 7026.43
522 7026.43
523 7026.43
524 6979.22
525 6979.22
526 6979.22
527 6979.22
528 6979.22
529 6979.22
530 6979.22
531 6979.22
532 6979.22
533 6979.22
534 6979.22
535 6979.22
536 6979.22
537 6979.22
538 6979.22
539 6979.22
540 6979.22
541 6979.22
542 6979.22
543 6970.69
544 6970.69
545 6970.69
546 6970.69
547 6970.69
548 6970.69
549 6970.69
550 6970.69
551 6970.69
552 6970.69
553 6970.69
554 6970.69
555 6970.69
556 6970.69
557 6970.69
558 6970.69
559 6970.69
560 6950.02
561 6950.02
562 6950.02
563 6950.02
564 6950.02
565 6950.02
566 6950.02
567 6950.02
568 6950.02
569 6950.02
570 6936.85
571 6936.85
572 6936.85
573 6936.85
574 6936.85
575 6936.85
576 6936.85
577 6936.85
578 6936.85
579 6936.85
580 6936.85
581 6936.85
582 6933.60
583 6933.60
584 6933.60
585 6933.60
586 6933.60
587 6933.60
588 6933.60
589 6933.60
590 6933.60
591 6933.60
592 6933.60
593 6921.67
594 6921.67
595 6921.67
596 6921.67
597 6921.67
598 6910.82
599 6910.82
600 6910.82
601 6910.82
602 6910.82
603 6910.82
604 6910.82
605 6910.82
606 6910.82
607 6910.82
608 6910.82
609 5396.95
610 5396.95
611 5396.95
612 5396.95
613 5396.95
614 5396.95
615 5396.95
616 5396.95
617 5396.95
618 5396.95
619 5396.95
620 5396.95
621 5396.95
622 5396.95
623 5396.95
624 5396.95
625 5396.95
626 5396.95
627 5396.95
628 5396.95
629 5396.95
630 5396.95
631 5396.95
632 5396.95
633 5396.95
634 5396.95
635 5396.95
636 5396.95
637 5396.95
638 5396.95
639 5396.95
640 5396.95
641 5396.95
642 5396.95
643 5396.95
644 5396.95
645 5396.95
646 5396.95
647 5396.95
648 5396.95
649 5396.95
650 5396.95
651 5396.95
652 5396.95
653 5396.95
654 5396.95
655 5396.95
656 5396.95
657 5396.95
658 5396.95
659 5396.95
660 5396.95
661 5396.95
662 5396.95
663 5396.95
664 5396.95
665 5396.95
666 5396.95
667 5396.95
668 5396.95
669 5396.95
670 5396.95
671 5396.95
672 5396.95
673 5396.95
674 5396.95
675 5396.95
676 5396.95
677 5396.95
678 5396.95
679 5396.95
680 5396.95
681 5396.95
682 5396.95
683 5396.95
684 5396.95
685 5396.95
686 5396.95
687 5396.95
688 5396.95
689 5396.95
690 5396.95
691 5396.95
692 5396.95
693 5396.95
694 5396.95
695 5396.95
696 5396.95
697 5396.95
698 5396.95
699 5396.95
700 5396.95
701 5396.95
702 5396.95
703 5396.95
704 5396.95
705 5396.95
706 5396.95
707 5396.95
708 5396.95
709 5396.95
710 5396.95
711 5396.95
712 5396.95
713 5396.95
714 5396.95
715 5396.95
716 5396.95
717 5396.95
718 5396.95
719 5396.95
720 5396.95
721 5396.95
722 5396.95
723 5396.95
724 5396.95
725 5396.95
726 5396.95
727 5396.95
728 5396.95
729 5396.95
730 5396.95
731 5396.95
732 5396.95
733 5396.95
734 5396.95
735 5396.95
736 5396.95
737 5396.95
738 5396.95
739 5396.95
740 5396.95
741 5396.95
742 5396.95
743 5396.95
744 5396.95
745 5396.95
746 5396.95
747 5396.95
748 5396.95
749 5396.95
750 5396.95
751 5396.95
752 5396.95
753 5396.95
754 5396.95
755 5396.95
756 5396.95
757 5396.95
758 5396.95
759 5396.95
760 5396.95
761 5396.95
762 5396.95
763 5396.95
764 5396.95
765 5396.95
766 5396.95
767 5396.95
768 5396.95
769 5396.95
770 5396.95
771 5396.95
772 5396.95
773 5396.95
774 5396.95
775 5396.95
776 5396.95
777 5396.95
778 5396.95
779 5396.95
780 5396.95
781 5396.95
782 5396.95
783 5396.95
784 5396.95
785 5396.95
786 5396.95
787 5396.95
788 5396.95
789 5396.95
790 5396.95
791 5396.95
792 5396.95
793 5396.95
794 5396.95
795 5396.95
796 5396.95
797 5396.95
798 5396.95
799 5396.95
800 5396.95
801 5396.95
802 5396.95
803 5396.95
804 5396.95
805 5396.95
806 5396.95
807 5396.95
808 5396.95
809 5396.95
810 5396.95
811 5396.95
812 5396.95
813 5396.95
814 5396.95
815 5396.95
816 5396.95
817 5396.95
818 5396.95
819 5396.95
820 5396.95
821 5396.95
822 5396.95
823 5396.95
824 5396.95
825 5396.95
826 5396.95
827 5396.95
828 5396.95
829 5396.95
830 5396.95
831 5396.95
832 5396.95
833 5396.95
834 5396.95
835 5396.95
836 5396.95
837 5396.95
838 5396.95
839 5396.95
840 5396.95
841 5396.95
842 5396.95
843 5396.95
844 5396.95
845 5396.95
846 5396.95
847 5396.95
848 5396.95
849 5396.95
850 5396.95
851 5396.95
852 5396.95
853 5396.95
854 5396.95
855 5396.95
856 5396.95
857 5396.95
858 5396.95
859 5396.95
860 5396.95
861 5396.95
862 5396.95
863 5396.95
864 5396.95
865 5396.95
866 5396.95
867 5396.95
868 5396.95
869 5396.95
870 5396.95
871 5396.95
872 5396.95
873 5396.95
874 5396.95
875 5396.95
876 5396.95
877 5396.95
878 5396.95
879 5396.95
880 5396.95
881 5396.95
882 5396.95
883 5396.95
884 5396.95
885 5396.95
886 5396.95
887 5396.95
888 5396.95
889 5396.95
890 5396.95
891 5396.95
892 5396.95
893 5396.95
894 5396.95
895 5396.95
896 5396.95
897 5396.95
898 5396.95
899 5396.95
900 5396.95
901 5396.95
902 5396.95
903 5396.95
904 5396.95
905 5396.95
906 5396.95
907 5396.95
908 5396.95
909 5396.95
910 5396.95
911 5396.95
912 5396.95
913 5396.95
914 5396.95
915 5396.95
916 5396.95
917 5396.95
918 5396.95
919 5396.95
920 5396.95
921 5396.95
922 5396.95
923 5396.95
924 5396.95
925 5396.95
926 5396.95
927 5396.95
928 5396.95
929 5396.95
930 5396.95
931 5396.95
932 5396.95
933 5396.95
934 5396.95
935 5396.95
936 5396.95
937 5396.95
938 5396.95
939 5396.95
940 5396.95
941 5396.95
942 5396.95
943 5396.95
944 5396.95
945 5396.95
946 5396.95
947 5396.95
948 5396.95
949 5396.95
950 5396.95
951 5396.95
952 5396.95
953 5396.95
954 5396.95
955 5396.95
956 5396.95
957 5396.95
958 5396.95
959 5396.95
960 5396.95
961 5396.95
962 5396.95
963 5396.95
964 5396.95
965 5396.95
966 5396.95
967 5396.95
968 5396.95
969 5396.95
970 5396.95
971 5396.95
972 5396.95
973 5396.95
974 5396.95
975 5396.95
976 5396.95
977 5396.95
978 5396.95
979 5396.95
980 5396.95
981 5396.95
982 5396.95
983 5396.95
984 5396.95
985 5396.95
986 5396.95
987 5396.95
988 5396.95
989 5396.95
990 5396.95
991 5396.95
992 5396.95
993 5396.95
994 5396.95
995 5396.95
996 5396.95
997 5396.95
998 5396.95
999 5396.95
10 11 5 1 0 0 